
Starting CP-SAT solver v9.14.6206
Parameters: max_time_in_seconds: 600 log_search_progress: true relative_gap_limit: 0
Setting number of workers to 20

Initial optimization model '': (model_fingerprint: 0x590e61e7cd7262f2)
#Variables: 368 (#ints: 48 in objective) (320 primary variables)
  - 48 in [0,12410]
  - 320 in [1440,12410]
#kInterval: 160
#kLinMax: 48 (#expressions: 96)
#kLinear1: 16
#kLinear2: 144
#kNoOverlap: 10 (#intervals: 160)

Starting presolve at 0.00s
  7.23e-05s  0.00e+00d  [DetectDominanceRelations] 
  1.97e-03s  0.00e+00d  [operations_research::sat::CpModelPresolver::PresolveToFixPoint] #num_loops=10 #num_dual_strengthening=1 
  8.00e-06s  0.00e+00d  [operations_research::sat::CpModelPresolver::ExtractEncodingFromLinear] 
  2.54e-05s  0.00e+00d  [operations_research::sat::CpModelPresolver::DetectDuplicateColumns] 
  8.47e-05s  0.00e+00d  [operations_research::sat::CpModelPresolver::DetectDuplicateConstraints] 
[Symmetry] Graph for symmetry has 887 nodes and 858 arcs.
[Symmetry] Symmetry computation done. time: 7.74e-05 dtime: 0.00013227
  6.93e-05s  0.00e+00d  [operations_research::sat::CpModelPresolver::DetectDuplicateConstraintsWithDifferentEnforcements] 
  6.32e-04s  1.87e-06d  [operations_research::sat::CpModelPresolver::Probe] 
  8.40e-06s  0.00e+00d  [MaxClique] 
  5.08e-05s  0.00e+00d  [DetectDominanceRelations] 
  3.37e-04s  0.00e+00d  [operations_research::sat::CpModelPresolver::PresolveToFixPoint] #num_loops=1 #num_dual_strengthening=1 
  3.98e-05s  0.00e+00d  [operations_research::sat::CpModelPresolver::ProcessAtMostOneAndLinear] 
  6.23e-05s  0.00e+00d  [operations_research::sat::CpModelPresolver::DetectDuplicateConstraints] 
  6.06e-05s  0.00e+00d  [operations_research::sat::CpModelPresolver::DetectDuplicateConstraintsWithDifferentEnforcements] 
  3.82e-05s  1.13e-06d  [operations_research::sat::CpModelPresolver::DetectDominatedLinearConstraints] #relevant_constraints=189 
  3.73e-05s  0.00e+00d  [operations_research::sat::CpModelPresolver::DetectDifferentVariables] 
  4.00e-06s  0.00e+00d  [operations_research::sat::CpModelPresolver::ProcessSetPPC] 
  5.40e-06s  0.00e+00d  [operations_research::sat::CpModelPresolver::FindAlmostIdenticalLinearConstraints] 
  1.02e-05s  0.00e+00d  [operations_research::sat::CpModelPresolver::FindBigAtMostOneAndLinearOverlap] 
  2.30e-05s  6.69e-06d  [operations_research::sat::CpModelPresolver::FindBigVerticalLinearOverlap] 
  4.00e-06s  0.00e+00d  [operations_research::sat::CpModelPresolver::FindBigHorizontalLinearOverlap] 
  6.10e-06s  0.00e+00d  [operations_research::sat::CpModelPresolver::MergeClauses] 
  5.02e-05s  0.00e+00d  [DetectDominanceRelations] 
  3.33e-04s  0.00e+00d  [operations_research::sat::CpModelPresolver::PresolveToFixPoint] #num_loops=1 #num_dual_strengthening=1 
  4.64e-05s  0.00e+00d  [DetectDominanceRelations] 
  3.10e-04s  0.00e+00d  [operations_research::sat::CpModelPresolver::PresolveToFixPoint] #num_loops=1 #num_dual_strengthening=1 
  1.68e-05s  0.00e+00d  [operations_research::sat::CpModelPresolver::DetectDuplicateColumns] 
  6.35e-05s  0.00e+00d  [operations_research::sat::CpModelPresolver::DetectDuplicateConstraints] 
[Symmetry] Graph for symmetry has 887 nodes and 858 arcs.
[Symmetry] Symmetry computation done. time: 5.83e-05 dtime: 0.00013227
  6.52e-05s  0.00e+00d  [operations_research::sat::CpModelPresolver::DetectDuplicateConstraintsWithDifferentEnforcements] 
  4.85e-04s  1.87e-06d  [operations_research::sat::CpModelPresolver::Probe] 
  3.60e-06s  0.00e+00d  [MaxClique] 
  5.00e-05s  0.00e+00d  [DetectDominanceRelations] 
  3.30e-04s  0.00e+00d  [operations_research::sat::CpModelPresolver::PresolveToFixPoint] #num_loops=1 #num_dual_strengthening=1 
  3.88e-05s  0.00e+00d  [operations_research::sat::CpModelPresolver::ProcessAtMostOneAndLinear] 
  6.50e-05s  0.00e+00d  [operations_research::sat::CpModelPresolver::DetectDuplicateConstraints] 
  6.24e-05s  0.00e+00d  [operations_research::sat::CpModelPresolver::DetectDuplicateConstraintsWithDifferentEnforcements] 
  3.13e-05s  1.13e-06d  [operations_research::sat::CpModelPresolver::DetectDominatedLinearConstraints] #relevant_constraints=189 
  3.34e-05s  0.00e+00d  [operations_research::sat::CpModelPresolver::DetectDifferentVariables] 
  3.50e-06s  0.00e+00d  [operations_research::sat::CpModelPresolver::ProcessSetPPC] 
  4.40e-06s  0.00e+00d  [operations_research::sat::CpModelPresolver::FindAlmostIdenticalLinearConstraints] 
  1.86e-05s  0.00e+00d  [operations_research::sat::CpModelPresolver::FindBigAtMostOneAndLinearOverlap] 
  2.37e-05s  6.69e-06d  [operations_research::sat::CpModelPresolver::FindBigVerticalLinearOverlap] 
  3.40e-06s  0.00e+00d  [operations_research::sat::CpModelPresolver::FindBigHorizontalLinearOverlap] 
  5.30e-06s  0.00e+00d  [operations_research::sat::CpModelPresolver::MergeClauses] 
  5.42e-05s  0.00e+00d  [DetectDominanceRelations] 
  3.49e-04s  0.00e+00d  [operations_research::sat::CpModelPresolver::PresolveToFixPoint] #num_loops=1 #num_dual_strengthening=1 
  1.65e-05s  0.00e+00d  [operations_research::sat::CpModelPresolver::ExpandObjective] 

Presolve summary:
  - 160 affine relations were detected.
  - rule 'TODO dual: only one blocking constraint?' was applied 288 times.
  - rule 'TODO dual: only one unspecified blocking constraint?' was applied 270 times.
  - rule 'affine: new relation' was applied 160 times.
  - rule 'lin_max: converted to equality' was applied 3 times.
  - rule 'lin_max: removed exprs' was applied 3 times.
  - rule 'lin_max: rewrite with precedences' was applied 45 times.
  - rule 'lin_max: target domain reduced' was applied 48 times.
  - rule 'linear: always true' was applied 64 times.
  - rule 'linear: fixed or dup variables' was applied 3 times.
  - rule 'linear: reduced variable domains' was applied 880 times.
  - rule 'linear: remapped using affine relations' was applied 336 times.
  - rule 'objective: variable not used elsewhere' was applied 3 times.
  - rule 'presolve: 3 unused variables removed.' was applied 1 time.
  - rule 'presolve: iteration' was applied 2 times.

Presolved optimization model '': (model_fingerprint: 0xc22b598773722257)
#Variables: 205 (#ints: 45 in objective) (160 primary variables)
  - 145 different domains in [0,12389] with a largest complexity of 1.
#kInterval: 160
#kLinear2: 189
#kNoOverlap: 10 (#intervals: 160)
[Symmetry] Graph for symmetry has 724 nodes and 858 arcs.
[Symmetry] Symmetry computation done. time: 6.43e-05 dtime: 0.00012249

Preloading model.
#Bound   0.01s best:inf   next:[0,470298] initial_domain
#Model   0.01s var:205/205 constraints:359/359

Starting search at 0.01s with 20 workers.
13 full problem subsolvers: [core, default_lp, fixed, lb_tree_search, max_lp, no_lp, objective_lb_search, objective_shaving_no_lp, probing, pseudo_costs, quick_restart, quick_restart_no_lp, reduced_costs]
7 first solution subsolvers: [fj(2), fj_lin, fs_random, fs_random_no_lp, fs_random_quick_restart, fs_random_quick_restart_no_lp]
17 interleaved subsolvers: [feasibility_pump, graph_arc_lns, graph_cst_lns, graph_dec_lns, graph_var_lns, lb_relax_lns, ls(2), ls_lin, rins/rens, rnd_cst_lns, rnd_var_lns, scheduling_intervals_lns, scheduling_precedences_lns, scheduling_resource_windows_lns, scheduling_time_window_lns, variables_shaving]
3 helper subsolvers: [neighborhood_helper, synchronization_agent, update_gap_integral]

#1       0.02s best:0     next:[]         core
#Done    0.02s core

Task timing                                  n [     min,      max]      avg      dev     time         n [     min,      max]      avg      dev    dtime
                             'core':         1 [  6.99ms,   6.99ms]   6.99ms   0.00ns   6.99ms         0 [  0.00ns,   0.00ns]   0.00ns   0.00ns   0.00ns
                       'default_lp':         1 [  7.67ms,   7.67ms]   7.67ms   0.00ns   7.67ms         0 [  0.00ns,   0.00ns]   0.00ns   0.00ns   0.00ns
                 'feasibility_pump':         1 [  2.66ms,   2.66ms]   2.66ms   0.00ns   2.66ms         0 [  0.00ns,   0.00ns]   0.00ns   0.00ns   0.00ns
                            'fixed':         1 [  7.38ms,   7.38ms]   7.38ms   0.00ns   7.38ms         0 [  0.00ns,   0.00ns]   0.00ns   0.00ns   0.00ns
                               'fj':         0 [  0.00ns,   0.00ns]   0.00ns   0.00ns   0.00ns         0 [  0.00ns,   0.00ns]   0.00ns   0.00ns   0.00ns
                               'fj':         1 [  2.47ms,   2.47ms]   2.47ms   0.00ns   2.47ms         0 [  0.00ns,   0.00ns]   0.00ns   0.00ns   0.00ns
                           'fj_lin':         0 [  0.00ns,   0.00ns]   0.00ns   0.00ns   0.00ns         0 [  0.00ns,   0.00ns]   0.00ns   0.00ns   0.00ns
                        'fs_random':         1 [  2.63ms,   2.63ms]   2.63ms   0.00ns   2.63ms         0 [  0.00ns,   0.00ns]   0.00ns   0.00ns   0.00ns
                  'fs_random_no_lp':         1 [  3.57ms,   3.57ms]   3.57ms   0.00ns   3.57ms         0 [  0.00ns,   0.00ns]   0.00ns   0.00ns   0.00ns
          'fs_random_quick_restart':         1 [  3.01ms,   3.01ms]   3.01ms   0.00ns   3.01ms         0 [  0.00ns,   0.00ns]   0.00ns   0.00ns   0.00ns
    'fs_random_quick_restart_no_lp':         1 [  2.32ms,   2.32ms]   2.32ms   0.00ns   2.32ms         0 [  0.00ns,   0.00ns]   0.00ns   0.00ns   0.00ns
                    'graph_arc_lns':         0 [  0.00ns,   0.00ns]   0.00ns   0.00ns   0.00ns         0 [  0.00ns,   0.00ns]   0.00ns   0.00ns   0.00ns
                    'graph_cst_lns':         0 [  0.00ns,   0.00ns]   0.00ns   0.00ns   0.00ns         0 [  0.00ns,   0.00ns]   0.00ns   0.00ns   0.00ns
                    'graph_dec_lns':         0 [  0.00ns,   0.00ns]   0.00ns   0.00ns   0.00ns         0 [  0.00ns,   0.00ns]   0.00ns   0.00ns   0.00ns
                    'graph_var_lns':         0 [  0.00ns,   0.00ns]   0.00ns   0.00ns   0.00ns         0 [  0.00ns,   0.00ns]   0.00ns   0.00ns   0.00ns
                     'lb_relax_lns':         0 [  0.00ns,   0.00ns]   0.00ns   0.00ns   0.00ns         0 [  0.00ns,   0.00ns]   0.00ns   0.00ns   0.00ns
                   'lb_tree_search':         1 [  9.05ms,   9.05ms]   9.05ms   0.00ns   9.05ms         0 [  0.00ns,   0.00ns]   0.00ns   0.00ns   0.00ns
                               'ls':         0 [  0.00ns,   0.00ns]   0.00ns   0.00ns   0.00ns         0 [  0.00ns,   0.00ns]   0.00ns   0.00ns   0.00ns
                               'ls':         0 [  0.00ns,   0.00ns]   0.00ns   0.00ns   0.00ns         0 [  0.00ns,   0.00ns]   0.00ns   0.00ns   0.00ns
                           'ls_lin':         0 [  0.00ns,   0.00ns]   0.00ns   0.00ns   0.00ns         0 [  0.00ns,   0.00ns]   0.00ns   0.00ns   0.00ns
                           'max_lp':         1 [  7.08ms,   7.08ms]   7.08ms   0.00ns   7.08ms         0 [  0.00ns,   0.00ns]   0.00ns   0.00ns   0.00ns
                            'no_lp':         1 [  6.64ms,   6.64ms]   6.64ms   0.00ns   6.64ms         0 [  0.00ns,   0.00ns]   0.00ns   0.00ns   0.00ns
              'objective_lb_search':         1 [  4.67ms,   4.67ms]   4.67ms   0.00ns   4.67ms         0 [  0.00ns,   0.00ns]   0.00ns   0.00ns   0.00ns
          'objective_shaving_no_lp':         1 [  3.99ms,   3.99ms]   3.99ms   0.00ns   3.99ms         0 [  0.00ns,   0.00ns]   0.00ns   0.00ns   0.00ns
                          'probing':         1 [  8.54ms,   8.54ms]   8.54ms   0.00ns   8.54ms         0 [  0.00ns,   0.00ns]   0.00ns   0.00ns   0.00ns
                     'pseudo_costs':         1 [  9.11ms,   9.11ms]   9.11ms   0.00ns   9.11ms         1 [890.00ns, 890.00ns] 890.00ns   0.00ns 890.00ns
                    'quick_restart':         1 [  6.15ms,   6.15ms]   6.15ms   0.00ns   6.15ms         0 [  0.00ns,   0.00ns]   0.00ns   0.00ns   0.00ns
              'quick_restart_no_lp':         1 [  5.02ms,   5.02ms]   5.02ms   0.00ns   5.02ms         0 [  0.00ns,   0.00ns]   0.00ns   0.00ns   0.00ns
                    'reduced_costs':         1 [  9.83ms,   9.83ms]   9.83ms   0.00ns   9.83ms         0 [  0.00ns,   0.00ns]   0.00ns   0.00ns   0.00ns
                        'rins/rens':         0 [  0.00ns,   0.00ns]   0.00ns   0.00ns   0.00ns         0 [  0.00ns,   0.00ns]   0.00ns   0.00ns   0.00ns
                      'rnd_cst_lns':         0 [  0.00ns,   0.00ns]   0.00ns   0.00ns   0.00ns         0 [  0.00ns,   0.00ns]   0.00ns   0.00ns   0.00ns
                      'rnd_var_lns':         0 [  0.00ns,   0.00ns]   0.00ns   0.00ns   0.00ns         0 [  0.00ns,   0.00ns]   0.00ns   0.00ns   0.00ns
         'scheduling_intervals_lns':         0 [  0.00ns,   0.00ns]   0.00ns   0.00ns   0.00ns         0 [  0.00ns,   0.00ns]   0.00ns   0.00ns   0.00ns
       'scheduling_precedences_lns':         0 [  0.00ns,   0.00ns]   0.00ns   0.00ns   0.00ns         0 [  0.00ns,   0.00ns]   0.00ns   0.00ns   0.00ns
  'scheduling_resource_windows_lns':         0 [  0.00ns,   0.00ns]   0.00ns   0.00ns   0.00ns         0 [  0.00ns,   0.00ns]   0.00ns   0.00ns   0.00ns
       'scheduling_time_window_lns':         0 [  0.00ns,   0.00ns]   0.00ns   0.00ns   0.00ns         0 [  0.00ns,   0.00ns]   0.00ns   0.00ns   0.00ns
                'variables_shaving':         1 [  2.07ms,   2.07ms]   2.07ms   0.00ns   2.07ms         0 [  0.00ns,   0.00ns]   0.00ns   0.00ns   0.00ns

Search stats                        Bools  Conflicts  Branches  Restarts  BoolPropag  IntegerPropag
                           'core':    189          0       217         2          17          1'482
                     'default_lp':      1          0         0         0           0              0
                          'fixed':     29          0        29         0           0          1'259
                      'fs_random':      0          0         0         0           0              0
                'fs_random_no_lp':      0          0         0         0           0              0
        'fs_random_quick_restart':      0          0         0         0           0              0
  'fs_random_quick_restart_no_lp':      0          0         0         0           0              0
                 'lb_tree_search':  1'200          0         0         0           0              0
                         'max_lp':      0          0         0         0           0              0
                          'no_lp':     80          0        80         0           0          2'091
            'objective_lb_search':      0          0         0         0           0              0
                        'probing':  1'200          0         0         0           0              0
                   'pseudo_costs':      0          0         0         0           0              0
                  'quick_restart':      5          0         5         0           0            300
            'quick_restart_no_lp':     30          0        30         0           0          1'278
                  'reduced_costs':  1'200          0         0         0           0              0

SAT stats                           ClassicMinim  LitRemoved  LitLearned  LitForgotten  Subsumed  MClauses  MDecisions  MLitTrue  MSubsumed  MLitRemoved  MReused
                           'core':             0           0           0             0         0         0           0         0          0            0        0
                     'default_lp':             0           0           0             0         0         0           0         0          0            0        0
                          'fixed':             0           0           0             0         0         0           0         0          0            0        0
                      'fs_random':             0           0           0             0         0         0           0         0          0            0        0
                'fs_random_no_lp':             0           0           0             0         0         0           0         0          0            0        0
        'fs_random_quick_restart':             0           0           0             0         0         0           0         0          0            0        0
  'fs_random_quick_restart_no_lp':             0           0           0             0         0         0           0         0          0            0        0
                 'lb_tree_search':             0           0           0             0         0         0           0         0          0            0        0
                         'max_lp':             0           0           0             0         0         0           0         0          0            0        0
                          'no_lp':             0           0           0             0         0         0           0         0          0            0        0
            'objective_lb_search':             0           0           0             0         0         0           0         0          0            0        0
                        'probing':             0           0           0             0         0         0           0         0          0            0        0
                   'pseudo_costs':             0           0           0             0         0         0           0         0          0            0        0
                  'quick_restart':             0           0           0             0         0         0           0         0          0            0        0
            'quick_restart_no_lp':             0           0           0             0         0         0           0         0          0            0        0
                  'reduced_costs':             0           0           0             0         0         0           0         0          0            0        0

Lp stats                  Component  Iterations  AddedCuts  OPTIMAL  DUAL_F.  DUAL_U.
           'default_lp':         16          68          0      119        0        0
                'fixed':         16         131          0      263        0        0
               'max_lp':          1         133         20        1        0        0
  'objective_lb_search':         16           0          0        0        0        0
         'pseudo_costs':          1          29        129        3        0        0
        'quick_restart':         16          91          0      165        0        0

Lp dimension              Final dimension of first component
           'default_lp':       1 rows, 12 columns, 2 entries
                'fixed':       1 rows, 12 columns, 2 entries
               'max_lp':  203 rows, 205 columns, 435 entries
  'objective_lb_search':       0 rows, 12 columns, 0 entries
         'pseudo_costs':   36 rows, 205 columns, 108 entries
        'quick_restart':       1 rows, 12 columns, 2 entries

Lp debug                  CutPropag  CutEqPropag  Adjust  Overflow  Bad  BadScaling
           'default_lp':          0            0       0         0    0           0
                'fixed':          0            0       0         0    0           0
               'max_lp':          0            0       0         0    0           0
  'objective_lb_search':          0            0       0         0    0           0
         'pseudo_costs':          0            0       0         0    0           0
        'quick_restart':          0            0       0         0    0           0

Lp pool                   Constraints  Updates  Simplif  Merged  Shortened  Split  Strenghtened  Cuts/Call
           'default_lp':          189        0        0       0          0      0             0        0/0
                'fixed':          189        0        0       0          0      0             0        0/0
               'max_lp':          209        0        0       0          0      0             0      20/26
  'objective_lb_search':          189        0        0       0          0      0             0        0/0
         'pseudo_costs':          318        0        0       0          0      0             0    129/150
        'quick_restart':          189        0        0       0          0      0             0        0/0

Lp Cut                                                max_lp  pseudo_costs
                  NoOverlapCompletionTimeExhaustive:       1             1
           NoOverlapCompletionTimeExhaustive_lifted:       -             4
  NoOverlapCompletionTimeExhaustive_lifted_weighted:       4            20
         NoOverlapCompletionTimeExhaustive_weighted:       1             4
                    NoOverlapCompletionTimeQueyrane:       2            18
             NoOverlapCompletionTimeQueyrane_lifted:       4            32
                        NoOverlapDisjunctionOnStart:       8            50

LNS stats                             Improv/Calls  Closed  Difficulty  TimeLimit
                    'graph_arc_lns':           0/0      0%    5.00e-01       0.10
                    'graph_cst_lns':           0/0      0%    5.00e-01       0.10
                    'graph_dec_lns':           0/0      0%    5.00e-01       0.10
                    'graph_var_lns':           0/0      0%    5.00e-01       0.10
                     'lb_relax_lns':           0/0      0%    5.00e-01       0.50
                        'rins/rens':           0/0      0%    5.00e-01       0.10
                      'rnd_cst_lns':           0/0      0%    5.00e-01       0.10
                      'rnd_var_lns':           0/0      0%    5.00e-01       0.10
         'scheduling_intervals_lns':           0/0      0%    5.00e-01       0.10
       'scheduling_precedences_lns':           0/0      0%    5.00e-01       0.10
  'scheduling_resource_windows_lns':           0/0      0%    5.00e-01       0.10
       'scheduling_time_window_lns':           0/0      0%    5.00e-01       0.10

Solutions (1)    Num   Rank
        'core':    1  [1,1]

Objective bounds     Num
  'initial_domain':    1

Solution repositories    Added  Queried  Synchro
  'feasible solutions':      1        0        1
   'fj solution hints':      0        0        0
        'lp solutions':      0        0        0
                'pump':      0        0

CpSolverResponse summary:
status: OPTIMAL
objective: 0
best_bound: 0
integers: 222
booleans: 1
conflicts: 0
branches: 0
propagations: 0
integer_propagations: 0
restarts: 0
lp_iterations: 68
walltime: 0.0375952
usertime: 0.0375953
deterministic_time: 2.028e-05
gap_integral: 0
solution_fingerprint: 0xf07b67f3314bfa34

